Welcome to the CBC MILP Solver 
Version: 2.10.7 
Build Date: Feb 14 2022 

command line - cbc inputs/new_no_tr/order/triang9_3_down_left_input.lp sec 1800 solve solu solutions/new_no_tr/triang9_3_down_left_input.lp (default strategy 1)
seconds was changed from 1e+100 to 1800
Continuous objective value is 272.292 - 4.04 seconds
Cgl0002I 201 variables fixed
Cgl0003I 0 fixed, 24 tightened bounds, 1723 strengthened rows, 0 substitutions
Cgl0003I 0 fixed, 30 tightened bounds, 794 strengthened rows, 0 substitutions
Cgl0003I 0 fixed, 27 tightened bounds, 519 strengthened rows, 0 substitutions
Cgl0003I 0 fixed, 18 tightened bounds, 116 strengthened rows, 0 substitutions
Cgl0003I 0 fixed, 13 tightened bounds, 79 strengthened rows, 0 substitutions
Cgl0003I 0 fixed, 7 tightened bounds, 30 strengthened rows, 0 substitutions
Cgl0003I 0 fixed, 9 tightened bounds, 16 strengthened rows, 0 substitutions
Cgl0003I 0 fixed, 5 tightened bounds, 40 strengthened rows, 0 substitutions
Cgl0003I 0 fixed, 2 tightened bounds, 6 strengthened rows, 0 substitutions
Cgl0004I processed model has 7792 rows, 2629 columns (2629 integer (2583 of which binary)) and 26760 elements
Cutoff increment increased from 1e-05 to 0.9999
Cbc0045I 1 integer variables out of 2629 objects (2629 integer) have cost of 1 - high priority
Cbc0045I branch on satisfied Y create fake objective Y random cost Y
Cbc0038I Initial state - 1297 integers unsatisfied sum - 394.976
Cbc0038I Pass   1: (12.76 seconds) suminf.  182.04330 (951) obj. 495.566 iterations 4862
Cbc0038I Pass   2: (13.45 seconds) suminf.  121.63250 (716) obj. 581.706 iterations 1758
Cbc0038I Pass   3: (13.94 seconds) suminf.   64.05622 (451) obj. 598.13 iterations 1536
Cbc0038I Pass   4: (14.15 seconds) suminf.   63.47438 (436) obj. 594.526 iterations 549
Cbc0038I Pass   5: (14.17 seconds) suminf.   63.44689 (439) obj. 594.527 iterations 44
Cbc0038I Pass   6: (14.33 seconds) suminf.   56.59831 (449) obj. 594.19 iterations 466
Cbc0038I Pass   7: (14.45 seconds) suminf.   55.23324 (455) obj. 594.251 iterations 265
Cbc0038I Pass   8: (14.60 seconds) suminf.   49.13647 (418) obj. 593.768 iterations 433
Cbc0038I Pass   9: (14.71 seconds) suminf.   47.60827 (397) obj. 593.416 iterations 285
Cbc0038I Pass  10: (14.72 seconds) suminf.   47.60827 (397) obj. 593.416 iterations 14
Cbc0038I Pass  11: (14.84 seconds) suminf.   43.44867 (381) obj. 558.877 iterations 335
Cbc0038I Pass  12: (14.89 seconds) suminf.   42.38061 (383) obj. 558.996 iterations 136
Cbc0038I Pass  13: (15.00 seconds) suminf.   41.81933 (380) obj. 560.101 iterations 268
Cbc0038I Pass  14: (15.01 seconds) suminf.   41.98354 (380) obj. 560.735 iterations 11
Cbc0038I Pass  15: (15.18 seconds) suminf.   38.05370 (348) obj. 559.711 iterations 483
Cbc0038I Pass  16: (15.22 seconds) suminf.   36.79565 (365) obj. 559.966 iterations 108
Cbc0038I Pass  17: (15.23 seconds) suminf.   36.77935 (363) obj. 559.966 iterations 7
Cbc0038I Pass  18: (15.34 seconds) suminf.   35.93729 (360) obj. 558.363 iterations 331
Cbc0038I Pass  19: (15.36 seconds) suminf.   34.83013 (352) obj. 558.724 iterations 34
Cbc0038I Pass  20: (15.48 seconds) suminf.   31.31080 (341) obj. 610.431 iterations 296
Cbc0038I Pass  21: (15.51 seconds) suminf.   30.88266 (345) obj. 610.355 iterations 57
Cbc0038I Pass  22: (15.71 seconds) suminf.   30.84283 (327) obj. 561.043 iterations 567
Cbc0038I Pass  23: (15.76 seconds) suminf.   29.62175 (332) obj. 561.02 iterations 181
Cbc0038I Pass  24: (15.90 seconds) suminf.   27.78575 (306) obj. 572.827 iterations 416
Cbc0038I Pass  25: (15.95 seconds) suminf.   26.66522 (310) obj. 573.191 iterations 140
Cbc0038I Pass  26: (15.97 seconds) suminf.   26.12647 (320) obj. 573.185 iterations 64
Cbc0038I Pass  27: (16.29 seconds) suminf.   21.08103 (285) obj. 561.338 iterations 1059
Cbc0038I Pass  28: (16.32 seconds) suminf.   20.68119 (284) obj. 560.531 iterations 105
Cbc0038I Pass  29: (16.38 seconds) suminf.   20.83980 (267) obj. 568.129 iterations 172
Cbc0038I Pass  30: (16.40 seconds) suminf.   18.75345 (269) obj. 568.127 iterations 60
Cbc0038I Pass  31: (16.42 seconds) suminf.   18.61995 (273) obj. 568.127 iterations 20
Cbc0038I Pass  32: (16.54 seconds) suminf.   17.74254 (223) obj. 568.703 iterations 371
Cbc0038I Pass  33: (16.56 seconds) suminf.   17.34449 (216) obj. 568.683 iterations 67
Cbc0038I Pass  34: (16.61 seconds) suminf.   13.16970 (183) obj. 568.986 iterations 148
Cbc0038I Pass  35: (16.64 seconds) suminf.   12.41124 (187) obj. 568.96 iterations 78
Cbc0038I Pass  36: (16.69 seconds) suminf.    7.92598 (156) obj. 569.525 iterations 132
Cbc0038I Pass  37: (16.70 seconds) suminf.    7.92598 (156) obj. 569.525 iterations 17
Cbc0038I Pass  38: (16.81 seconds) suminf.    4.64833 (124) obj. 571.557 iterations 266
Cbc0038I Pass  39: (16.82 seconds) suminf.    4.64833 (124) obj. 571.557 iterations 2
Cbc0038I Pass  40: (17.18 seconds) suminf.    4.40869 (108) obj. 571.98 iterations 1377
Cbc0038I Pass  41: (17.19 seconds) suminf.    4.40869 (108) obj. 571.98 iterations 24
Cbc0038I Pass  42: (17.58 seconds) suminf.    0.82913 (79) obj. 561.996 iterations 1353
Cbc0038I Pass  43: (17.59 seconds) suminf.    0.82913 (79) obj. 561.996 iterations 1
Cbc0038I Pass  44: (17.74 seconds) suminf.    4.94825 (68) obj. 579.416 iterations 482
Cbc0038I Pass  45: (17.75 seconds) suminf.    4.94825 (68) obj. 579.416 iterations 5
Cbc0038I Pass  46: (17.82 seconds) suminf.    3.75842 (31) obj. 578.065 iterations 167
Cbc0038I Pass  47: (17.83 seconds) suminf.    3.75842 (31) obj. 578.065 iterations 20
Cbc0038I Pass  48: (17.85 seconds) suminf.    0.00000 (0) obj. 562 iterations 78
Cbc0038I Solution found of 562
Cbc0038I Cleaned solution of 562
Cbc0038I Before mini branch and bound, 927 integers at bound fixed and 0 continuous
Cbc0038I Mini branch and bound did not improve solution (17.95 seconds)
Cbc0038I Round again with cutoff of 532.131
Cbc0038I Pass  49: (17.96 seconds) suminf.  182.04330 (951) obj. 495.566 iterations 0
Cbc0038I Pass  50: (18.57 seconds) suminf.  123.68669 (731) obj. 532.131 iterations 1645
Cbc0038I Pass  51: (19.17 seconds) suminf.   66.93469 (476) obj. 532.131 iterations 1748
Cbc0038I Pass  52: (19.34 seconds) suminf.   59.83606 (439) obj. 525.41 iterations 437
Cbc0038I Pass  53: (19.37 seconds) suminf.   59.57468 (444) obj. 523.828 iterations 86
Cbc0038I Pass  54: (19.57 seconds) suminf.   52.98711 (399) obj. 524.348 iterations 643
Cbc0038I Pass  55: (19.68 seconds) suminf.   49.39465 (400) obj. 527.763 iterations 311
Cbc0038I Pass  56: (19.69 seconds) suminf.   49.41735 (400) obj. 527.755 iterations 8
Cbc0038I Pass  57: (19.92 seconds) suminf.   40.44390 (343) obj. 530.976 iterations 766
Cbc0038I Pass  58: (19.95 seconds) suminf.   37.51625 (348) obj. 532.131 iterations 112
Cbc0038I Pass  59: (20.05 seconds) suminf.   37.81989 (347) obj. 532.131 iterations 336
Cbc0038I Pass  60: (20.10 seconds) suminf.   37.67609 (347) obj. 532.131 iterations 147
Cbc0038I Pass  61: (20.15 seconds) suminf.   35.82639 (356) obj. 532.131 iterations 167
Cbc0038I Pass  62: (20.27 seconds) suminf.   35.17736 (352) obj. 532.131 iterations 337
Cbc0038I Pass  63: (20.39 seconds) suminf.   32.06331 (326) obj. 532.131 iterations 407
Cbc0038I Pass  64: (20.41 seconds) suminf.   32.05783 (326) obj. 532.131 iterations 10
Cbc0038I Pass  65: (20.53 seconds) suminf.   29.64123 (303) obj. 532.131 iterations 373
Cbc0038I Pass  66: (20.61 seconds) suminf.   26.27736 (303) obj. 532.131 iterations 260
Cbc0038I Pass  67: (20.71 seconds) suminf.   22.54652 (296) obj. 532.131 iterations 273
Cbc0038I Pass  68: (20.72 seconds) suminf.   22.54652 (296) obj. 532.131 iterations 23
Cbc0038I Pass  69: (20.82 seconds) suminf.   19.48736 (238) obj. 532.131 iterations 273
Cbc0038I Pass  70: (20.87 seconds) suminf.   19.34463 (240) obj. 532.131 iterations 139
Cbc0038I Pass  71: (21.03 seconds) suminf.   13.06182 (199) obj. 532.131 iterations 512
Cbc0038I Pass  72: (21.15 seconds) suminf.   11.30996 (200) obj. 532.131 iterations 368
Cbc0038I Pass  73: (21.21 seconds) suminf.    8.90472 (181) obj. 532.131 iterations 193
Cbc0038I Pass  74: (21.23 seconds) suminf.    8.96765 (174) obj. 532.131 iterations 53
Cbc0038I Pass  75: (21.30 seconds) suminf.    8.02082 (153) obj. 532.131 iterations 224
Cbc0038I Pass  76: (21.31 seconds) suminf.    8.02082 (153) obj. 532.131 iterations 7
Cbc0038I Pass  77: (21.39 seconds) suminf.    6.76338 (149) obj. 532.131 iterations 263
Cbc0038I Pass  78: (21.43 seconds) suminf.    6.66678 (172) obj. 532.131 iterations 158
Cbc0038I Pass  79: (21.50 seconds) suminf.    6.34288 (132) obj. 531.231 iterations 238
Cbc0038I Pass  80: (21.52 seconds) suminf.    4.80938 (136) obj. 532.131 iterations 81
Cbc0038I Pass  81: (21.71 seconds) suminf.    6.62409 (113) obj. 532.131 iterations 576
Cbc0038I Pass  82: (21.73 seconds) suminf.    6.55454 (116) obj. 532.131 iterations 64
Cbc0038I Pass  83: (21.81 seconds) suminf.    8.99533 (125) obj. 531.4 iterations 273
Cbc0038I Pass  84: (21.83 seconds) suminf.    6.14304 (124) obj. 532.131 iterations 70
Cbc0038I Pass  85: (22.02 seconds) suminf.   10.66064 (101) obj. 532.131 iterations 636
Cbc0038I Pass  86: (22.04 seconds) suminf.   10.65269 (106) obj. 532.131 iterations 38
Cbc0038I Pass  87: (22.10 seconds) suminf.    6.93172 (73) obj. 532.131 iterations 241
Cbc0038I Pass  88: (22.12 seconds) suminf.    6.91279 (80) obj. 532.131 iterations 58
Cbc0038I Pass  89: (22.16 seconds) suminf.    7.83817 (77) obj. 532.131 iterations 166
Cbc0038I Pass  90: (22.18 seconds) suminf.    7.83933 (80) obj. 532.131 iterations 66
Cbc0038I Pass  91: (22.28 seconds) suminf.    8.23257 (87) obj. 532.131 iterations 440
Cbc0038I Pass  92: (22.35 seconds) suminf.    7.43764 (64) obj. 532.131 iterations 224
Cbc0038I Pass  93: (22.49 seconds) suminf.    7.49413 (81) obj. 532.131 iterations 445
Cbc0038I Pass  94: (22.51 seconds) suminf.    6.91279 (80) obj. 532.131 iterations 92
Cbc0038I Pass  95: (22.57 seconds) suminf.    8.55250 (81) obj. 532.131 iterations 242
Cbc0038I Pass  96: (22.61 seconds) suminf.    7.83933 (80) obj. 532.131 iterations 153
Cbc0038I Pass  97: (22.71 seconds) suminf.   10.72974 (78) obj. 532.131 iterations 361
Cbc0038I Pass  98: (22.78 seconds) suminf.    7.43764 (64) obj. 532.131 iterations 247
Cbc0038I Pass  99: (23.00 seconds) suminf.   12.31448 (113) obj. 526.84 iterations 924
Cbc0038I Pass 100: (23.17 seconds) suminf.    4.97886 (85) obj. 532.131 iterations 587
Cbc0038I Pass 101: (23.63 seconds) suminf.    8.27093 (81) obj. 532.131 iterations 1877
Cbc0038I Pass 102: (23.65 seconds) suminf.    7.78456 (81) obj. 532.131 iterations 40
Cbc0038I Pass 103: (23.83 seconds) suminf.    7.09221 (96) obj. 532.131 iterations 716
Cbc0038I Pass 104: (23.86 seconds) suminf.    6.85301 (78) obj. 532.131 iterations 126
Cbc0038I Pass 105: (23.99 seconds) suminf.    9.36450 (72) obj. 532.131 iterations 482
Cbc0038I Pass 106: (24.17 seconds) suminf.    7.48451 (95) obj. 532.131 iterations 611
Cbc0038I Pass 107: (24.24 seconds) suminf.    9.14934 (102) obj. 532.131 iterations 311
Cbc0038I Pass 108: (24.28 seconds) suminf.    6.16359 (88) obj. 532.131 iterations 169
Cbc0038I Pass 109: (24.50 seconds) suminf.   10.83158 (136) obj. 532.131 iterations 1005
Cbc0038I Pass 110: (24.60 seconds) suminf.    6.14088 (88) obj. 532.131 iterations 294
Cbc0038I Pass 111: (24.92 seconds) suminf.    9.69983 (91) obj. 532.131 iterations 1040
Cbc0038I Pass 112: (25.02 seconds) suminf.    7.62488 (100) obj. 532.131 iterations 363
Cbc0038I Pass 113: (25.05 seconds) suminf.    5.64271 (94) obj. 532.131 iterations 92
Cbc0038I Pass 114: (25.25 seconds) suminf.    7.03709 (130) obj. 532.131 iterations 628
Cbc0038I Pass 115: (25.32 seconds) suminf.    5.60443 (94) obj. 532.131 iterations 231
Cbc0038I Pass 116: (25.40 seconds) suminf.    9.05612 (132) obj. 532.131 iterations 310
Cbc0038I Pass 117: (26.04 seconds) suminf.   83.40568 (442) obj. 532.131 iterations 2470
Cbc0038I Pass 118: (26.58 seconds) suminf.   43.71905 (335) obj. 532.131 iterations 1975
Cbc0038I Pass 119: (26.64 seconds) suminf.   43.33318 (340) obj. 532.131 iterations 175
Cbc0038I Pass 120: (26.82 seconds) suminf.   35.63149 (285) obj. 532.131 iterations 616
Cbc0038I Pass 121: (26.88 seconds) suminf.   35.24106 (296) obj. 532.131 iterations 184
Cbc0038I Pass 122: (26.97 seconds) suminf.   34.79922 (301) obj. 532.131 iterations 244
Cbc0038I Pass 123: (27.03 seconds) suminf.   35.12493 (323) obj. 532.131 iterations 201
Cbc0038I Pass 124: (27.16 seconds) suminf.   29.24062 (306) obj. 532.131 iterations 411
Cbc0038I Pass 125: (27.22 seconds) suminf.   28.35203 (304) obj. 532.131 iterations 163
Cbc0038I Pass 126: (27.38 seconds) suminf.   21.25215 (239) obj. 532.131 iterations 584
Cbc0038I Pass 127: (27.42 seconds) suminf.   19.12823 (237) obj. 532.131 iterations 150
Cbc0038I Pass 128: (27.48 seconds) suminf.   19.50167 (229) obj. 532.131 iterations 184
Cbc0038I Pass 129: (27.72 seconds) suminf.   47.20086 (320) obj. 532.131 iterations 1129
Cbc0038I Pass 130: (27.89 seconds) suminf.   25.98843 (225) obj. 532.131 iterations 773
Cbc0038I Pass 131: (27.90 seconds) suminf.   25.98843 (225) obj. 532.131 iterations 2
Cbc0038I Pass 132: (27.95 seconds) suminf.   24.54919 (211) obj. 532.131 iterations 183
Cbc0038I Pass 133: (27.98 seconds) suminf.   23.40839 (218) obj. 532.131 iterations 111
Cbc0038I Pass 134: (28.02 seconds) suminf.   20.51170 (205) obj. 532.131 iterations 141
Cbc0038I Pass 135: (28.05 seconds) suminf.   20.30939 (206) obj. 532.131 iterations 93
Cbc0038I Pass 136: (28.09 seconds) suminf.   17.77015 (204) obj. 532.131 iterations 150
Cbc0038I Pass 137: (28.12 seconds) suminf.   17.20682 (212) obj. 532.131 iterations 96
Cbc0038I Pass 138: (28.14 seconds) suminf.   16.98772 (209) obj. 532.131 iterations 94
Cbc0038I Pass 139: (28.17 seconds) suminf.   16.50230 (218) obj. 532.131 iterations 106
Cbc0038I Pass 140: (28.22 seconds) suminf.   15.10605 (188) obj. 532.131 iterations 177
Cbc0038I Pass 141: (28.25 seconds) suminf.   14.24501 (179) obj. 532.131 iterations 110
Cbc0038I Pass 142: (28.34 seconds) suminf.   13.53972 (157) obj. 532.131 iterations 397
Cbc0038I Pass 143: (28.37 seconds) suminf.   12.99088 (156) obj. 532.131 iterations 134
Cbc0038I Pass 144: (28.41 seconds) suminf.   14.04881 (153) obj. 532.131 iterations 166
Cbc0038I Pass 145: (28.46 seconds) suminf.    7.98737 (150) obj. 532.131 iterations 253
Cbc0038I Pass 146: (28.65 seconds) suminf.   13.35284 (162) obj. 532.131 iterations 763
Cbc0038I Pass 147: (28.89 seconds) suminf.    7.56996 (129) obj. 532.131 iterations 777
Cbc0038I Pass 148: (29.57 seconds) suminf.  106.67648 (629) obj. 532.131 iterations 2273
Cbc0038I No solution found this major pass
Cbc0038I Before mini branch and bound, 629 integers at bound fixed and 0 continuous
Cbc0038I Mini branch and bound did not improve solution (29.58 seconds)
Cbc0038I After 29.58 seconds - Feasibility pump exiting with objective of 562 - took 19.03 seconds
Cbc0012I Integer solution of 562 found by feasibility pump after 0 iterations and 0 nodes (29.59 seconds)
Cbc0031I 42 added rows had average density of 18.428571
Cbc0013I At root node, 42 cuts changed objective from 272.31029 to 316 in 10 passes
Cbc0014I Cut generator 0 (Probing) - 36 row cuts average 3.1 elements, 5 column cuts (5 active)  in 0.247 seconds - new frequency is 1
Cbc0014I Cut generator 1 (Gomory) - 163 row cuts average 40.3 elements, 0 column cuts (0 active)  in 1.044 seconds - new frequency is 1
Cbc0014I Cut generator 2 (Knapsack) - 0 row cuts average 0.0 elements, 0 column cuts (0 active)  in 0.033 seconds - new frequency is -100
Cbc0014I Cut generator 3 (Clique) - 0 row cuts average 0.0 elements, 0 column cuts (0 active)  in 0.067 seconds - new frequency is -100
Cbc0014I Cut generator 4 (MixedIntegerRounding2) - 0 row cuts average 0.0 elements, 0 column cuts (0 active)  in 0.036 seconds - new frequency is -100
Cbc0014I Cut generator 5 (FlowCover) - 0 row cuts average 0.0 elements, 0 column cuts (0 active)  in 0.022 seconds - new frequency is -100
Cbc0014I Cut generator 6 (TwoMirCuts) - 380 row cuts average 27.9 elements, 0 column cuts (0 active)  in 0.772 seconds - new frequency is 1
Cbc0014I Cut generator 7 (ZeroHalf) - 12 row cuts average 47.2 elements, 0 column cuts (0 active)  in 1.446 seconds - new frequency is -100
Cbc0010I After 0 nodes, 1 on tree, 562 best solution, best possible 316 (81.21 seconds)
Cbc0010I After 100 nodes, 8 on tree, 562 best solution, best possible 317 (473.09 seconds)
Cbc0010I After 200 nodes, 19 on tree, 562 best solution, best possible 318 (899.26 seconds)
Cbc0010I After 300 nodes, 4 on tree, 562 best solution, best possible 318 (1123.99 seconds)
Cbc0010I After 400 nodes, 6 on tree, 562 best solution, best possible 322 (1498.42 seconds)
Cbc0020I Exiting on maximum time
Cbc0005I Partial search - best objective 562 (best possible 322), took 1983849 iterations and 461 nodes (1793.78 seconds)
Cbc0032I Strong branching done 5858 times (502394 iterations), fathomed 37 nodes and fixed 754 variables
Cbc0035I Maximum depth 42, 0 variables fixed on reduced cost
Cuts at root node changed objective from 272.31 to 316
Probing was tried 379 times and created 8108 cuts of which 0 were active after adding rounds of cuts (6.177 seconds)
Gomory was tried 359 times and created 1236 cuts of which 0 were active after adding rounds of cuts (9.258 seconds)
Knapsack was tried 10 times and created 0 cuts of which 0 were active after adding rounds of cuts (0.033 seconds)
Clique was tried 10 times and created 0 cuts of which 0 were active after adding rounds of cuts (0.067 seconds)
MixedIntegerRounding2 was tried 10 times and created 0 cuts of which 0 were active after adding rounds of cuts (0.036 seconds)
FlowCover was tried 10 times and created 0 cuts of which 0 were active after adding rounds of cuts (0.022 seconds)
TwoMirCuts was tried 359 times and created 3460 cuts of which 0 were active after adding rounds of cuts (3.525 seconds)
ZeroHalf was tried 10 times and created 12 cuts of which 0 were active after adding rounds of cuts (1.446 seconds)
ImplicationCuts was tried 123 times and created 56 cuts of which 0 were active after adding rounds of cuts (0.018 seconds)

Result - Stopped on time limit

Objective value:                562.00000000
Lower bound:                    322.000
Gap:                            0.75
Enumerated nodes:               461
Total iterations:               1983849
Time (CPU seconds):             1794.59
Time (Wallclock seconds):       1797.94

Total time (CPU seconds):       1794.62   (Wallclock seconds):       1797.97

